
Gurobi 10.0.3 (linux64, gurobi_cl) logging started Thu Nov  9 11:49:13 2023

Set parameter Username
Set parameter TimeLimit to value 3600
Set parameter LogFile to value "RCPSP_1229.log"
Set parameter Threads to value 32
Academic license - for non-commercial use only - expires 2024-10-30
Using license file /home/jrivera6/gurobi-licenses/v1003/compute-0-37/gurobi.lic

Gurobi Optimizer version 10.0.3 build v10.0.3rc0 (linux64)
Copyright (c) 2023, Gurobi Optimization, LLC

Read MPS format model from file RCPSP_1229.mps
Reading time = 0.05 seconds
RCPSP_1229: 42947 rows, 17020 columns, 151052 nonzeros

CPU model: Intel(R) Xeon(R) Gold 6242 CPU @ 2.80GHz, instruction set [SSE2|AVX|AVX2|AVX512]
Thread count: 32 physical cores, 32 logical processors, using up to 32 threads

Optimize a model with 42947 rows, 17020 columns and 151052 nonzeros
Model fingerprint: 0xd2474b32
Variable types: 92 continuous, 16928 integer (16928 binary)
Coefficient statistics:
  Matrix range     [1e+00, 5e+02]
  Objective range  [1e+00, 1e+00]
  Bounds range     [1e+00, 1e+00]
  RHS range        [1e+00, 6e+02]
Presolve removed 7796 rows and 1965 columns
Presolve time: 3.80s
Presolved: 35151 rows, 15055 columns, 129250 nonzeros
Variable types: 91 continuous, 14964 integer (14964 binary)

Deterministic concurrent LP optimizer: primal and dual simplex (primal and dual model)
Showing first log only...

Root relaxation presolved: 35151 rows, 15055 columns, 129250 nonzeros


Root simplex log...

Iteration    Objective       Primal Inf.    Dual Inf.      Time
     743    8.7275658e+01   1.243834e+02   6.457743e+07      5s
    2176    8.4000000e+01   0.000000e+00   0.000000e+00      5s
Concurrent spin time: 0.37s

Solved with dual simplex (primal model)

Root relaxation: objective 8.400000e+01, 5502 iterations, 1.60 seconds (0.13 work units)

    Nodes    |    Current Node    |     Objective Bounds      |     Work
 Expl Unexpl |  Obj  Depth IntInf | Incumbent    BestBd   Gap | It/Node Time

     0     0   84.00000    0   73          -   84.00000      -     -    8s
     0     0   84.00000    0  455          -   84.00000      -     -   22s
     0     0   84.00000    0  473          -   84.00000      -     -   24s
     0     0   84.00000    0   18          -   84.00000      -     -   36s
     0     0   84.00000    0   24          -   84.00000      -     -   37s
     0     0   84.00000    0   32          -   84.00000      -     -   43s
     0     0   84.00000    0  104          -   84.00000      -     -   44s
     0     0   84.00000    0    6          -   84.00000      -     -   50s
     0     0   84.00000    0    6          -   84.00000      -     -   51s
     0     0   84.00000    0    2          -   84.00000      -     -   57s
     0     0   84.00000    0    4          -   84.00000      -     -   75s
     0     0   84.00000    0    4          -   84.00000      -     -   80s
     0     0   84.00000    0    2          -   84.00000      -     -   81s
     0     0   84.00000    0    2          -   84.00000      -     -   86s
H    0     0                      84.0000000   84.00000  0.00%     -   90s
     0     0   84.00000    0    2   84.00000   84.00000  0.00%     -   90s

Cutting planes:
  Gomory: 21
  Cover: 1
  Implied bound: 52
  MIR: 44
  RLT: 90
  Relax-and-lift: 64

Explored 1 nodes (42037 simplex iterations) in 94.14 seconds (11.20 work units)
Thread count was 32 (of 32 available processors)

Solution count 1: 84 

Optimal solution found (tolerance 1.00e-04)
Best objective 8.400000000000e+01, best bound 8.400000000000e+01, gap 0.0000%

Wrote result file 'RCPSP_1229.sol'

